0000000000000000
0001111111000000
0111111111110000
0011111111111000
0011000111111100
0000000001111100
0000000000111100
0000000000111100
0011110000111100
0011110000111100
0011110000111100
0011110000111100
0011110000111100
0011110000111100
0011110000111100
0000000000000000
